

*************************************************************

   NEOS Server Version 6.0
   Job#     : 18293095
   Password : HZmSYtyq
   User     : 
   Solver   : milp:Gurobi:AMPL
   Start    : 2026-01-28 15:37:47
   End      : 2026-01-28 23:39:56
   Host     : prod-sub-1.neos-server.org

   Disclaimer:

   This information is provided without any express or
   implied warranty. In particular, there is no warranty
   of any kind concerning the fitness of this
   information for any particular purpose.

   Announcements:
*************************************************************
You are using the solver gurobi_ampl.
Checking ampl.mod for gurobi_options...
Checking ampl.com for gurobi_options...
Executing AMPL.
processing data.
processing commands.
Executing on prod-exec-5.neos-server.org
N = 600


"option presolve 0;" used, but "option presolve 10;" might work better.
600 variables, all nonlinear
0 algebraic constraints
3 logical constraints
1 linear objective; 600 nonzeros.

Gurobi 12.0.3:   tech:threads = 4
  pre:solve = 1
  alg:iisfind = 1
Set parameter LogToConsole to value 1
  tech:outlev = 1

AMPL MP initial flat model has 600 variables (600 integer, 0 binary);
Objectives: 1 linear; 
Constraints:  1200 linear;
Logical expressions:  3 alldiff;

AMPL MP final model has 1081804 variables (1803 integer, 1080000 binary);
Objectives: 1 linear; 
Constraints:  6598 linear;


Set parameter InfUnbdInfo to value 1
Gurobi Optimizer version 12.0.3 build v12.0.3rc0 (linux64 - "Rocky Linux 8.10 (Green Obsidian)")

CPU model: Intel(R) Xeon(R) CPU E5-2430 0 @ 2.20GHz, instruction set [SSE2|AVX]
Thread count: 12 physical cores, 24 logical processors, using up to 4 threads

Non-default parameters:
InfUnbdInfo  1
Presolve  1
Threads  4

Optimize a model with 6598 rows, 1081804 columns and 3243596 nonzeros
Model fingerprint: 0xedf4b4fe
Variable types: 1204 continuous, 1080600 integer (0 binary)
Coefficient statistics:
  Matrix range     [1e+00, 1e+03]
  Objective range  [0e+00, 0e+00]
  Bounds range     [1e+00, 6e+02]
  RHS range        [1e+00, 6e+02]
Presolve removed 4 rows and 1204 columns (presolve time = 5s)...
Presolve removed 4 rows and 1204 columns (presolve time = 10s)...
Presolve removed 4 rows and 1204 columns (presolve time = 16s)...
Presolve removed 4 rows and 1204 columns
Presolve time: 16.37s
Presolved: 6594 rows, 1080600 columns, 3239996 nonzeros
Variable types: 0 continuous, 1080600 integer (1080000 binary)
Deterministic concurrent LP optimizer: primal simplex, dual simplex, and barrier
Showing barrier log only...

Root barrier log...

Ordering time: 1.68s

Barrier statistics:
 AA' NZ     : 2.162e+06
 Factor NZ  : 7.053e+06 (roughly 500 MB of memory)
 Factor Ops : 1.015e+10 (roughly 1 second per iteration)
 Threads    : 2

                  Objective                Residual
Iter       Primal          Dual         Primal    Dual     Compl     Time
   0   0.00000000e+00 -1.92054375e+03  6.84e+03 0.00e+00  2.88e-01    44s
   1   0.00000000e+00 -2.24403829e+03  2.94e+03 3.72e-02  1.26e-01    46s
   2   0.00000000e+00 -2.47858043e+03  8.74e+02 1.07e-02  3.86e-02    48s
   3   0.00000000e+00 -2.10169358e+03  5.64e+02 5.02e-03  2.35e-02    51s
   4   0.00000000e+00 -1.92927477e+03  6.10e+01 3.03e-03  3.37e-03    53s
   5   0.00000000e+00 -1.45133142e+03  2.48e+01 1.57e-03  1.56e-03    56s
   6   0.00000000e+00 -1.31894000e+03  1.93e+01 1.32e-03  1.26e-03    58s
   7   0.00000000e+00 -1.00141331e+03  1.19e+01 9.01e-04  8.21e-04    61s
   8   0.00000000e+00 -6.59774618e+02  3.62e+00 4.86e-04  3.96e-04    64s
   9   0.00000000e+00 -1.06362592e+02  1.53e-01 3.88e-05  5.11e-05    67s
  10   0.00000000e+00 -8.41098407e-01  4.33e-04 2.22e-16  3.89e-07    70s
  11   0.00000000e+00 -8.41093536e-04  3.29e-07 1.87e-16  3.89e-10    72s
  12   0.00000000e+00 -8.41093576e-07  8.40e-08 1.82e-16  3.89e-13    74s
  13   0.00000000e+00 -3.73003462e-13  1.39e-13 6.39e-17  5.38e-19    76s

Barrier solved model in 13 iterations and 76.35 seconds (17.16 work units)
Optimal objective 0.00000000e+00

  Building initial crossover basis                                86s
  Building initial crossover basis                                91s
  Building initial crossover basis                                95s
  Building initial crossover basis                               101s
  Building initial crossover basis                               107s
  Building initial crossover basis                               111s
  Building initial crossover basis                               116s
  Building initial crossover basis                               122s
  Building initial crossover basis                               126s
  Building initial crossover basis                               130s
  Building initial crossover basis                               137s
  Building initial crossover basis                               142s

Root crossover log...

    1343 DPushes remaining with DInf 0.0000000e+00               145s
     369 DPushes remaining with DInf 0.0000000e+00               145s
       0 DPushes remaining with DInf 0.0000000e+00               147s

    1222 PPushes remaining with PInf 0.0000000e+00               147s
       0 PPushes remaining with PInf 0.0000000e+00               147s

  Push phase complete: Pinf 0.0000000e+00, Dinf 0.0000000e+00    147s


Root simplex log...

Iteration    Objective       Primal Inf.    Dual Inf.      Time
    1986    0.0000000e+00   0.000000e+00   0.000000e+00    148s
Concurrent spin time: 60.20s (can be avoided by choosing Method=3)

Solved with barrier
    1986    0.0000000e+00   0.000000e+00   0.000000e+00    209s

Root relaxation: objective 0.000000e+00, 1986 iterations, 176.85 seconds (28.43 work units)
Total elapsed time = 487.82s (DegenMoves)
Total elapsed time = 559.93s (DegenMoves)
Total elapsed time = 818.05s (DegenMoves)

    Nodes    |    Current Node    |     Objective Bounds      |     Work
 Expl Unexpl |  Obj  Depth IntInf | Incumbent    BestBd   Gap | It/Node Time

     0     0    0.00000    0 2910          -    0.00000      -     - 1367s
     0     0    0.00000    0 3982          -    0.00000      -     - 1717s
     0     0    0.00000    0 4185          -    0.00000      -     - 2265s
     0     0    0.00000    0 4357          -    0.00000      -     - 3533s
     0     0    0.00000    0 4375          -    0.00000      -     - 4414s
     0     0    0.00000    0 3059          -    0.00000      -     - 6713s
     0     0    0.00000    0 2887          -    0.00000      -     - 7336s
     0     2    0.00000    0 2887          -    0.00000      -     - 8043s
     1     4    0.00000    1 2897          -    0.00000      - 42204 8167s
     3     6    0.00000    2 3646          -    0.00000      - 21432 8548s
     5     7    0.00000    3 4165          -    0.00000      - 15415 9616s
     6     8    0.00000    2 3984          -    0.00000      - 15792 10537s
     7    12    0.00000    3 4187          -    0.00000      - 16572 11520s
    11    16    0.00000    4 3690          -    0.00000      - 16744 15814s
    23    60    0.00000   11 3903          -    0.00000      - 13579 16588s
   103   109 infeasible   21               -    0.00000      - 14810 16913s
   219   150    0.00000   36 3899          -    0.00000      - 13706 17156s
   335   189 infeasible   50               -    0.00000      - 11834 17544s
   431   236    0.00000   54 3895          -    0.00000      - 11635 17827s
   547   270    0.00000   69 3775          -    0.00000      - 11045 18666s
   625   316    0.00000   77 3812          -    0.00000      - 10713 18955s
   741   345    0.00000   90 3672          -    0.00000      - 10397 19180s
   857   368 infeasible  101               -    0.00000      -  9795 19539s
   950   393    0.00000  101 3670          -    0.00000      -  9656 19974s
  1034   393    0.00000  104 3508          -    0.00000      -  9441 19975s
  1051   418    0.00000  114 3691          -    0.00000      -  9416 20300s
  1128   462 infeasible  121               -    0.00000      -  9584 20652s
  1237   510    0.00000  129 3579          -    0.00000      -  9652 20958s
  1346   523 infeasible  139               -    0.00000      -  9823 21246s
  1397   560 infeasible  152               -    0.00000      - 10125 21486s
  1505   602    0.00000  157 3433          -    0.00000      - 10033 21729s
  1616   649    0.00000  167 3399          -    0.00000      - 10025 21970s
  1728   679    0.00000  177 3393          -    0.00000      -  9973 22208s
  1834   726    0.00000  186 3322          -    0.00000      - 10000 22465s
  1942   727    0.00000  104 2887          -    0.00000      -  9996 25773s
  1943   728    0.00000  102 2887          -    0.00000      -  9991 25775s
  1944   728    0.00000  133 2800          -    0.00000      -  9986 26212s
  1945   729    0.00000   53 2917          -    0.00000      -  9981 26877s
  1946   730    0.00000  104 3959          -    0.00000      -  9975 27078s
  1947   730    0.00000   44 4188          -    0.00000      -  9970 27668s
  1948   731    0.00000   50 4246          -    0.00000      -  9965 28148s

ERROR: Your job was terminated because it exceeded the maximum allotted time for a job.

Please refer to the NEOS Server FAQ (https://neos-guide.org/content/FAQ) for more information regarding job termination conditions and potential solutions.

NEOS Server Home

